
  22    4
  10   10   10   10

   0   0   0   0   0   3 2 3 4 
   9  10  10  10  10   3 10 9 5 
   1  10  10  10  10   3 10 9 6 
   4  10  10  10  10   3 12 10 6 
   2  10  10  10  10   1 6 
   5  10  10  10  10   2 8 7 
   8  10  10  10  10   3 14 13 11 
   8  10  10  10  10   2 13 11 
   6  10  10  10  10   2 14 12 
   6  10  10  10  10   3 21 16 14 
   5  10  10  10  10   4 21 20 17 15 
   6  10  10  10  10   4 21 20 19 16 
   3  10  10  10  10   3 20 19 16 
   1  10  10  10  10   3 20 19 17 
   7  10  10  10  10   2 19 18 
   9  10  10  10  10   1 17 
   6  10  10  10  10   1 18 
   9  10  10  10  10   1 22
   3  10  10  10  10   1 22
   4  10  10  10  10   1 22
   7  10  10  10  10   1 22
   0   0   0   0   0   0 
